
Gurobi 9.0.1 (linux64) logging started Thu Apr 30 05:57:57 2020

Gurobi Optimizer version 9.0.1 build v9.0.1rc0 (linux64)
Optimize a model with 872 rows, 990 columns and 6936 nonzeros
Model fingerprint: 0x7b45b5c6
Variable types: 0 continuous, 990 integer (980 binary)
Coefficient statistics:
  Matrix range     [1e+00, 5e+00]
  Objective range  [3e+00, 1e+02]
  Bounds range     [1e+00, 1e+00]
  RHS range        [1e+00, 1e+00]

User MIP start produced solution with objective 501 (0.00s)
Loaded user MIP start with objective 501

Presolve removed 208 rows and 360 columns
Presolve time: 0.06s
Presolved: 664 rows, 630 columns, 4902 nonzeros
Variable types: 0 continuous, 630 integer (622 binary)

Root relaxation: objective 4.181324e+02, 598 iterations, 0.03 seconds

    Nodes    |    Current Node    |     Objective Bounds      |     Work
 Expl Unexpl |  Obj  Depth IntInf | Incumbent    BestBd   Gap | It/Node Time

     0     0  418.13241    0  268  501.00000  418.13241  16.5%     -    0s
     0     0  439.60566    0  292  501.00000  439.60566  12.3%     -    0s
     0     0  446.65502    0  297  501.00000  446.65502  10.8%     -    0s
     0     0  446.66363    0  297  501.00000  446.66363  10.8%     -    0s
     0     0  455.89829    0  288  501.00000  455.89829  9.00%     -    0s
     0     0  456.19911    0  289  501.00000  456.19911  8.94%     -    0s
     0     0  456.20233    0  286  501.00000  456.20233  8.94%     -    0s
     0     0  460.57207    0  306  501.00000  460.57207  8.07%     -    0s
     0     0  460.80407    0  311  501.00000  460.80407  8.02%     -    0s
     0     0  461.02435    0  311  501.00000  461.02435  7.98%     -    0s
     0     0  461.03525    0  310  501.00000  461.03525  7.98%     -    0s
     0     0  462.43404    0  314  501.00000  462.43404  7.70%     -    0s
     0     0  462.83901    0  310  501.00000  462.83901  7.62%     -    0s
     0     0  462.85899    0  314  501.00000  462.85899  7.61%     -    0s
     0     0  465.06790    0  308  501.00000  465.06790  7.17%     -    0s
     0     0  465.56748    0  316  501.00000  465.56748  7.07%     -    0s
     0     0  465.80866    0  312  501.00000  465.80866  7.02%     -    1s
     0     0  465.81314    0  312  501.00000  465.81314  7.02%     -    1s
     0     0  468.13331    0  314  501.00000  468.13331  6.56%     -    1s
     0     0  468.27121    0  318  501.00000  468.27121  6.53%     -    1s
     0     0  468.29712    0  317  501.00000  468.29712  6.53%     -    1s
     0     0  468.68073    0  316  501.00000  468.68073  6.45%     -    1s
     0     0  468.76758    0  318  501.00000  468.76758  6.43%     -    1s
     0     0  468.77862    0  318  501.00000  468.77862  6.43%     -    1s
     0     0  468.88228    0  319  501.00000  468.88228  6.41%     -    1s
     0     0  469.01138    0  272  501.00000  469.01138  6.38%     -    1s
     0     0  469.01138    0  296  501.00000  469.01138  6.38%     -    1s
     0     0  469.01138    0  296  501.00000  469.01138  6.38%     -    1s
     0     0  469.01138    0  296  501.00000  469.01138  6.38%     -    1s
     0     0  470.20582    0  292  501.00000  470.20582  6.15%     -    1s
     0     0  470.27708    0  293  501.00000  470.27708  6.13%     -    1s
     0     0  470.28333    0  293  501.00000  470.28333  6.13%     -    1s
     0     0  477.55088    0  298  501.00000  477.55088  4.68%     -    1s
     0     0  477.76679    0  293  501.00000  477.76679  4.64%     -    1s
     0     0  477.76924    0  294  501.00000  477.76924  4.64%     -    1s
     0     0  480.07374    0  292  501.00000  480.07374  4.18%     -    2s
     0     0  480.47569    0  312  501.00000  480.47569  4.10%     -    2s
     0     0  480.56113    0  305  501.00000  480.56113  4.08%     -    2s
     0     0  480.56996    0  304  501.00000  480.56996  4.08%     -    2s
     0     0  480.70104    0  308  501.00000  480.70104  4.05%     -    2s
     0     0  480.71716    0  308  501.00000  480.71716  4.05%     -    2s
     0     0  480.77432    0  308  501.00000  480.77432  4.04%     -    2s
     0     0  480.77432    0  308  501.00000  480.77432  4.04%     -    2s
     0     0  480.86102    0  243  501.00000  480.86102  4.02%     -    2s
     0     0  480.86102    0  259  501.00000  480.86102  4.02%     -    2s
     0     0  480.91264    0  258  501.00000  480.91264  4.01%     -    2s
     0     0  480.94093    0  256  501.00000  480.94093  4.00%     -    2s
     0     0  480.94187    0  259  501.00000  480.94187  4.00%     -    2s
     0     0  483.62577    0  261  501.00000  483.62577  3.47%     -    2s
     0     0  484.11048    0  256  501.00000  484.11048  3.37%     -    2s
     0     0  484.13685    0  255  501.00000  484.13685  3.37%     -    2s
     0     0  487.35760    0  273  501.00000  487.35760  2.72%     -    2s
     0     0  487.75851    0  280  501.00000  487.75851  2.64%     -    2s
     0     0  487.82107    0  286  501.00000  487.82107  2.63%     -    2s
     0     0  487.84403    0  280  501.00000  487.84403  2.63%     -    2s
     0     0  488.65492    0  273  501.00000  488.65492  2.46%     -    2s
     0     0  488.80159    0  274  501.00000  488.80159  2.43%     -    2s
     0     0  488.83722    0  270  501.00000  488.83722  2.43%     -    2s
     0     0  488.83826    0  270  501.00000  488.83826  2.43%     -    2s
     0     0  489.19874    0  272  501.00000  489.19874  2.36%     -    2s
     0     0  489.23295    0  274  501.00000  489.23295  2.35%     -    2s
     0     0  489.23696    0  268  501.00000  489.23696  2.35%     -    2s
     0     0  489.27648    0  276  501.00000  489.27648  2.34%     -    3s
     0     0  489.27648    0  276  501.00000  489.27648  2.34%     -    3s
     0     2  489.35294    0  276  501.00000  489.35294  2.32%     -    3s

Cutting planes:
  Clique: 7
  MIR: 14
  GUB cover: 1
  Zero half: 20
  RLT: 135

Explored 35 nodes (9762 simplex iterations) in 3.46 seconds
Thread count was 1 (of 40 available processors)

Solution count 1: 501 

Optimal solution found (tolerance 1.00e-04)
Best objective 5.010000000000e+02, best bound 5.010000000000e+02, gap 0.0000%

User-callback calls 1126, time in user-callback 0.00 sec
